Pt4
1.0
3.915348 -0.000036 0.000084
-0.000036 3.915205 0.000088
0.000084 0.000088 3.915454
Pt
4
direct
-0.000012 -0.000016 1.000008 Pt
1.000002 0.500016 0.499995 Pt
0.500014 0.999991 0.499995 Pt
0.499998 0.500009 -0.000001 Pt
