Pt24
1.0
5.598394 0.000000 -0.023234
-0.042754 5.616258 0.007824
0.000000 0.000000 27.809204
Pt
24
direct
0.499947 0.499897 0.392854 Pt
0.499946 0.999897 0.392854 Pt
0.999947 0.499897 0.392854 Pt
0.999946 0.999897 0.392854 Pt
0.250055 0.250101 0.321432 Pt
0.250055 0.750101 0.321432 Pt
0.750055 0.250101 0.321432 Pt
0.750054 0.750101 0.321432 Pt
0.499947 0.499897 0.535711 Pt
0.499946 0.999897 0.535711 Pt
0.999947 0.499897 0.535711 Pt
0.999946 0.999897 0.535711 Pt
0.250055 0.250101 0.464289 Pt
0.250055 0.750101 0.464289 Pt
0.750055 0.250101 0.464289 Pt
0.750054 0.750101 0.464289 Pt
0.499947 0.499897 0.678568 Pt
0.499946 0.999897 0.678568 Pt
0.999947 0.499897 0.678568 Pt
0.999946 0.999897 0.678568 Pt
0.250055 0.250101 0.607146 Pt
0.250055 0.750101 0.607146 Pt
0.750055 0.250101 0.607146 Pt
0.750054 0.750101 0.607146 Pt
