Pt20
1.0
5.598236 0.000000 0.048204
2.794178 4.861854 0.027896
0.000000 0.000000 27.535899
Pt
20
direct
0.166665 0.166667 0.333333 Pt
0.166666 0.666667 0.333333 Pt
0.666665 0.166667 0.333333 Pt
0.666666 0.666667 0.333333 Pt
0.333332 0.333334 0.416667 Pt
0.333332 0.833334 0.416667 Pt
0.833332 0.333334 0.416667 Pt
0.833332 0.833334 0.416667 Pt
0.499999 0.000000 0.500000 Pt
0.499999 0.500001 0.500000 Pt
0.999999 0.000000 0.500000 Pt
0.999999 0.500001 0.500000 Pt
0.166665 0.166667 0.583333 Pt
0.166666 0.666667 0.583333 Pt
0.666665 0.166667 0.583333 Pt
0.666666 0.666667 0.583333 Pt
0.333332 0.333334 0.666667 Pt
0.333332 0.833334 0.666667 Pt
0.833332 0.333334 0.666667 Pt
0.833332 0.833334 0.666667 Pt
