Pt 
 1.0000000000000000
     8.2930829999999993    0.0000000000000000   -0.4613310000000000
    -4.1592539999999998    7.1894790000000004   -0.0001020000000000
     0.0000000000000000    0.0000000000000000   24.9187289999999990
 Pt 
  36
Selective dynamics
Direct
  0.3030300000000000  0.1515150000000000  0.3636360000000001   F   F   F
  0.3030300000000000  0.4848480000000000  0.3636360000000001   F   F   F
  0.3030300000000001  0.8181820000000001  0.3636360000000001   F   F   F
  0.6363640000000000  0.1515150000000000  0.3636360000000001   F   F   F
  0.6363640000000000  0.4848480000000000  0.3636360000000001   F   F   F
  0.6363640000000002  0.8181820000000001  0.3636360000000001   F   F   F
  0.9696969999999999  0.1515150000000000  0.3636360000000001   F   F   F
  0.9696969999999999  0.4848480000000000  0.3636360000000001   F   F   F
  0.9696969999999999  0.8181820000000001  0.3636360000000001   F   F   F
  0.2124598884639279  0.2728987861527797  0.4560042651450144   T   T   T
  0.2124605285050633  0.6062332493662829  0.4560046854450521   T   T   T
  0.2124608306624727  0.9395658469964477  0.4560050813663922   T   T   T
  0.5457926102814051  0.2728976996086568  0.4560038515141523   T   T   T
  0.5457933474213622  0.6062329925614057  0.4560038010264720   T   T   T
  0.5457931428189450  0.9395660012145101  0.4560044881780084   T   T   T
  0.8791278220720037  0.2728990348688988  0.4560037650492804   T   T   T
  0.8791288127809633  0.6062337743419560  0.4560038144389864   T   T   T
  0.8791280107846066  0.9395666619111220  0.4560040665781271   T   T   T
  0.1215368474833543  0.0607834150459556  0.5467771288339518   T   T   T
  0.1215361109293670  0.3941161571839149  0.5467762798872764   T   T   T
  0.1215388676818868  0.7274519569054809  0.5467780995964633   T   T   T
  0.4548678710597273  0.0607812987893521  0.5467780757476161   T   T   T
  0.4548659212827000  0.3941138344298205  0.5467748875008182   T   T   T
  0.4548677635982675  0.7274511273642393  0.5467768685072129   T   T   T
  0.7882041253265387  0.0607839916893609  0.5467755494759692   T   T   T
  0.7882043159890199  0.3941156000692306  0.5467736407670665   T   T   T
  0.7882056516650520  0.7274529302883856  0.5467746143306061   T   T   T
  0.0310246047249231  0.1822031013683678  0.6392890784880015   T   T   T
  0.0310236252288765  0.5155356102539393  0.6392882443569685   T   T   T
  0.0310256831884917  0.8488708712700479  0.6392905060106070   T   T   T
  0.3643575643716688  0.1822030613949660  0.6392906910685519   T   T   T
  0.3643579226444089  0.5155365939822567  0.6392883317836269   T   T   T
  0.3643590901078034  0.8488701722642065  0.6392943041116911   T   T   T
  0.6976925980410694  0.1822042332448955  0.6392870966325663   T   T   T
  0.6976905630440609  0.5155355447303899  0.6392823150545474   T   T   T
  0.6976912134347023  0.8488699841290609  0.6392868814973032   T   T   T
