Pt4
1.0
4.742000 -0.000010 0.000337
0.000005 2.693448 0.000049
0.000297 -0.000003 4.754468
Pt
4
direct
-0.000044 -0.000000 1.000007 Pt
0.999962 0.500000 0.499997 Pt
0.500045 1.000000 0.499992 Pt
0.500038 0.500000 0.000002 Pt
